(set-info :smt-lib-version 2.6)
(set-logic UF)
(set-info :source |
Generated by: Andrew Reynolds
Generated on: 2017-04-28
Generator: Sledgehammer, converted to v2.6 by CVC4
Application: Verfication goals in Isabelle
Target solver: CVC4, Z3
Publications: "A Decision Procedure for (Co)Datatypes" by Andrew Reynolds and Jasmin Blanchette, CADE 2015.
|)
(set-info :license "https://creativecommons.org/licenses/by/4.0/")
(set-info :category "industrial")
(set-info :status unsat)


(declare-sort A$ 0)
(declare-sort Nat$ 0)
(declare-sort A_a_fun$ 0)
(declare-sort Nat_nat_fun$ 0)
(declare-sort Nat_bool_fun$ 0)
(declare-sort Enat_bool_fun$ 0)
(declare-sort Enat_enat_fun$ 0)
(declare-sort A_llist_enat_fun$ 0)
(declare-sort A_llist_a_llist_fun$ 0)
(declare-sort Nat_nat_bool_fun_fun$ 0)
(declare-sort A_llist$ 0)
(declare-fun lNil$ () A_llist$)
(declare-fun lhd$ (A_llist$) A$)
(declare-fun ltl$ (A_llist$) A_llist$)
(declare-fun lCons$ (A$ A_llist$) A_llist$)
(declare-sort Nat_option$ 0)
(declare-sort Enat$ 0)
(declare-fun none$ () Nat_option$)
(declare-fun the$ (Nat_option$) Nat$)
(declare-fun some$ (Nat$) Nat_option$)
(declare-fun rep_enat$ (Enat$) Nat_option$)
(declare-fun abs_enat$ (Nat_option$) Enat$)
(declare-fun n$ () Nat$)
(declare-fun n$a () Enat$)
(declare-fun xs$ () A_llist$)
(declare-fun enat$ (Nat$) Enat$)
(declare-fun less$ (Enat$) Enat_bool_fun$)
(declare-fun lnth$ (A_llist$ Nat$) A$)
(declare-fun plus$ (Enat$) Enat_enat_fun$)
(declare-fun size$ (Enat$) Nat$)
(declare-fun zero$ () Enat$)
(declare-fun ldrop$ (Enat$) A_llist_a_llist_fun$)
(declare-fun less$a (Nat$) Nat_bool_fun$)
(declare-fun plus$a (Nat$) Nat_nat_fun$)
(declare-fun times$ (Enat$) Enat_enat_fun$)
(declare-fun zero$a () Nat$)
(declare-fun ldropn$ (Nat$) A_llist_a_llist_fun$)
(declare-fun times$a (Nat$) Nat_nat_fun$)
(declare-fun fun_app$ (A_llist_a_llist_fun$ A_llist$) A_llist$)
(declare-fun less_eq$ (Enat$) Enat_bool_fun$)
(declare-fun llength$ () A_llist_enat_fun$)
(declare-fun fun_app$a (Enat_bool_fun$ Enat$) Bool)
(declare-fun fun_app$b (A_llist_enat_fun$ A_llist$) Enat$)
(declare-fun fun_app$c (Enat_enat_fun$ Enat$) Enat$)
(declare-fun fun_app$d (Nat_bool_fun$ Nat$) Bool)
(declare-fun fun_app$e (Nat_nat_fun$ Nat$) Nat$)
(declare-fun fun_app$f (Nat_nat_bool_fun_fun$ Nat$) Nat_bool_fun$)
(declare-fun infinity$ () Enat$)
(declare-fun iterates$ (A_a_fun$ A$) A_llist$)
(declare-fun less_eq$a (Nat$) Nat_bool_fun$)
(declare-fun the_enat$ (Enat$) Nat$)
(declare-fun size_enat$ (Enat$) Nat$)
(declare-fun gen_llength$ (Nat$) A_llist_enat_fun$)
(assert (not (= (lhd$ (fun_app$ (ldrop$ (enat$ n$)) xs$)) (lnth$ xs$ (the_enat$ (enat$ n$))))))
(assert (= n$a (enat$ n$)))
(assert (=> (forall ((?v0 Nat$)) (=> (= n$a (enat$ ?v0)) false) ) false))
(assert (forall ((?v0 Nat$) (?v1 Nat$)) (= (= (enat$ ?v0) (enat$ ?v1)) (= ?v0 ?v1)) ))
(assert (forall ((?v0 Nat$)) (! (= (the_enat$ (enat$ ?v0)) ?v0) :pattern ((enat$ ?v0)))))
(assert (fun_app$a (less$ n$a) (fun_app$b llength$ xs$)))
(assert (forall ((?v0 A_a_fun$) (?v1 A$)) (= (lhd$ (iterates$ ?v0 ?v1)) ?v1) ))
(assert (forall ((?v0 Nat$) (?v1 A_llist$)) (! (= (fun_app$ (ldrop$ (enat$ ?v0)) ?v1) (fun_app$ (ldropn$ ?v0) ?v1)) :pattern ((fun_app$ (ldrop$ (enat$ ?v0)) ?v1)))))
(assert (forall ((?v0 A_llist$)) (= (fun_app$ (ldrop$ zero$) ?v0) ?v0) ))
(assert (forall ((?v0 Enat$)) (=> (not (= ?v0 infinity$)) (= (enat$ (the_enat$ ?v0)) ?v0)) ))
(assert (forall ((?v0 Enat$) (?v1 Enat$) (?v2 A_llist$)) (= (fun_app$ (ldrop$ ?v0) (fun_app$ (ldrop$ ?v1) ?v2)) (fun_app$ (ldrop$ (fun_app$c (plus$ ?v0) ?v1)) ?v2)) ))
(assert (forall ((?v0 Enat$)) (! (= (fun_app$ (ldrop$ ?v0) lNil$) lNil$) :pattern ((ldrop$ ?v0)))))
(assert (forall ((?v0 Enat$)) (= (forall ((?v1 Nat$)) (not (= ?v0 (enat$ ?v1))) ) (= ?v0 infinity$)) ))
(assert (forall ((?v0 Enat$)) (= (not (= ?v0 infinity$)) (exists ((?v1 Nat$)) (= ?v0 (enat$ ?v1)) )) ))
(assert (forall ((?v0 Enat$) (?v1 Nat$) (?v2 Enat$)) (= (= (fun_app$c (plus$ ?v0) (enat$ ?v1)) (fun_app$c (plus$ ?v2) (enat$ ?v1))) (= ?v0 ?v2)) ))
(assert (forall ((?v0 Nat$) (?v1 Enat$) (?v2 Enat$)) (= (= (fun_app$c (plus$ (enat$ ?v0)) ?v1) (fun_app$c (plus$ (enat$ ?v0)) ?v2)) (= ?v1 ?v2)) ))
(assert (forall ((?v0 Enat$)) (= (fun_app$a (less$ zero$) ?v0) (not (= ?v0 zero$))) ))
(assert (forall ((?v0 Nat$)) (! (= (fun_app$ (ldropn$ ?v0) lNil$) lNil$) :pattern ((ldropn$ ?v0)))))
(assert (forall ((?v0 Enat$)) (! (= (fun_app$c (plus$ ?v0) infinity$) infinity$) :pattern ((plus$ ?v0)))))
(assert (forall ((?v0 Enat$)) (! (= (fun_app$c (plus$ infinity$) ?v0) infinity$) :pattern ((fun_app$c (plus$ infinity$) ?v0)))))
(assert (forall ((?v0 Enat$)) (! (= (fun_app$a (less$ ?v0) infinity$) (not (= ?v0 infinity$))) :pattern ((less$ ?v0)))))
(assert (forall ((?v0 Enat$)) (! (= (fun_app$a (less$ infinity$) ?v0) false) :pattern ((fun_app$a (less$ infinity$) ?v0)))))
(assert (= (fun_app$b llength$ lNil$) zero$))
(assert (forall ((?v0 A_llist$)) (! (= (fun_app$ (ldrop$ infinity$) ?v0) lNil$) :pattern ((fun_app$ (ldrop$ infinity$) ?v0)))))
(assert (forall ((?v0 Nat$) (?v1 Enat$) (?v2 Enat$)) (= (fun_app$a (less$ (fun_app$c (plus$ (enat$ ?v0)) ?v1)) (fun_app$c (plus$ (enat$ ?v0)) ?v2)) (fun_app$a (less$ ?v1) ?v2)) ))
(assert (forall ((?v0 Enat$) (?v1 Enat$)) (= (= (fun_app$c (plus$ ?v0) ?v1) zero$) (and (= ?v0 zero$) (= ?v1 zero$))) ))
(assert (forall ((?v0 Enat$) (?v1 Enat$) (?v2 Enat$)) (= (fun_app$a (less$ (fun_app$c (plus$ ?v0) ?v1)) (fun_app$c (plus$ ?v0) ?v2)) (and (not (= ?v0 infinity$)) (fun_app$a (less$ ?v1) ?v2))) ))
(assert (forall ((?v0 Enat$) (?v1 Enat$) (?v2 Enat$)) (= (= (fun_app$c (plus$ ?v0) ?v1) (fun_app$c (plus$ ?v0) ?v2)) (or (= ?v0 infinity$) (= ?v1 ?v2))) ))
(assert (forall ((?v0 Nat$)) (! (= (fun_app$a (less$ (enat$ ?v0)) infinity$) true) :pattern ((enat$ ?v0)))))
(assert (forall ((?v0 Enat$)) (=> (and (=> (= ?v0 zero$) false) (=> (not (= ?v0 zero$)) false)) false) ))
(assert (forall ((?v0 Enat_bool_fun$) (?v1 Enat$)) (=> (forall ((?v2 Enat$)) (=> (forall ((?v3 Enat$)) (=> (fun_app$a (less$ ?v3) ?v2) (fun_app$a ?v0 ?v3)) ) (fun_app$a ?v0 ?v2)) ) (fun_app$a ?v0 ?v1)) ))
(assert (forall ((?v0 Enat$)) (=> (and (fun_app$a (less$ ?v0) infinity$) (forall ((?v1 Nat$)) (=> (= ?v0 (enat$ ?v1)) false) )) false) ))
(assert (forall ((?v0 Nat$)) (=> (fun_app$a (less$ infinity$) (enat$ ?v0)) false) ))
(assert (not (= infinity$ zero$)))
(assert (forall ((?v0 Enat$)) (not (fun_app$a (less$ ?v0) zero$)) ))
(assert (forall ((?v0 Nat$)) (not (= infinity$ (enat$ ?v0))) ))
(assert (forall ((?v0 Nat$)) (not (= (enat$ ?v0) infinity$)) ))
(assert (forall ((?v0 Enat$) (?v1 Enat$) (?v2 Enat$)) (=> (and (forall ((?v3 Nat$) (?v4 Nat$) (?v5 Nat$)) (=> (and (= ?v0 (enat$ ?v3)) (and (= ?v1 (enat$ ?v4)) (= ?v2 (enat$ ?v5)))) false) ) (and (forall ((?v3 Nat$) (?v4 Nat$)) (=> (and (= ?v0 (enat$ ?v3)) (and (= ?v1 (enat$ ?v4)) (= ?v2 infinity$))) false) ) (and (forall ((?v3 Nat$) (?v4 Nat$)) (=> (and (= ?v0 (enat$ ?v3)) (and (= ?v1 infinity$) (= ?v2 (enat$ ?v4)))) false) ) (and (forall ((?v3 Nat$)) (=> (and (= ?v0 (enat$ ?v3)) (and (= ?v1 infinity$) (= ?v2 infinity$))) false) ) (and (forall ((?v3 Nat$) (?v4 Nat$)) (=> (and (= ?v0 infinity$) (and (= ?v1 (enat$ ?v3)) (= ?v2 (enat$ ?v4)))) false) ) (and (forall ((?v3 Nat$)) (=> (and (= ?v0 infinity$) (and (= ?v1 (enat$ ?v3)) (= ?v2 infinity$))) false) ) (and (forall ((?v3 Nat$)) (=> (and (= ?v0 infinity$) (and (= ?v1 infinity$) (= ?v2 (enat$ ?v3)))) false) ) (=> (and (= ?v0 infinity$) (and (= ?v1 infinity$) (= ?v2 infinity$))) false)))))))) false) ))
(assert (forall ((?v0 Enat$) (?v1 Enat$)) (=> (and (forall ((?v2 Nat$) (?v3 Nat$)) (=> (and (= ?v0 (enat$ ?v2)) (= ?v1 (enat$ ?v3))) false) ) (and (forall ((?v2 Nat$)) (=> (and (= ?v0 (enat$ ?v2)) (= ?v1 infinity$)) false) ) (and (forall ((?v2 Nat$)) (=> (and (= ?v0 infinity$) (= ?v1 (enat$ ?v2))) false) ) (=> (and (= ?v0 infinity$) (= ?v1 infinity$)) false)))) false) ))
(assert (forall ((?v0 Enat$)) (=> (and (forall ((?v1 Nat$)) (=> (= ?v0 (enat$ ?v1)) false) ) (=> (= ?v0 infinity$) false)) false) ))
(assert (forall ((?v0 Enat$) (?v1 Nat$)) (=> (fun_app$a (less$ ?v0) (enat$ ?v1)) (exists ((?v2 Nat$)) (= ?v0 (enat$ ?v2)) )) ))
(assert (forall ((?v0 Nat$) (?v1 A_llist$)) (=> (fun_app$a (less$ (enat$ ?v0)) (fun_app$b llength$ ?v1)) (= (lhd$ (fun_app$ (ldropn$ ?v0) ?v1)) (lnth$ ?v1 ?v0))) ))
(assert (forall ((?v0 Nat$) (?v1 Nat$) (?v2 Nat$)) (= (fun_app$d (less$a (fun_app$e (plus$a ?v0) ?v1)) (fun_app$e (plus$a ?v2) ?v1)) (fun_app$d (less$a ?v0) ?v2)) ))
(assert (forall ((?v0 Nat$) (?v1 Nat$) (?v2 Nat$)) (= (fun_app$d (less$a (fun_app$e (plus$a ?v0) ?v1)) (fun_app$e (plus$a ?v0) ?v2)) (fun_app$d (less$a ?v1) ?v2)) ))
(assert (forall ((?v0 Enat$)) (= (fun_app$c (plus$ ?v0) zero$) ?v0) ))
(assert (forall ((?v0 Nat$)) (= (fun_app$e (plus$a ?v0) zero$a) ?v0) ))
(assert (forall ((?v0 Nat$) (?v1 Nat$) (?v2 Nat$)) (= (= (fun_app$e (plus$a ?v0) ?v1) (fun_app$e (plus$a ?v0) ?v2)) (= ?v1 ?v2)) ))
(assert (forall ((?v0 Nat$) (?v1 Nat$) (?v2 Nat$)) (= (= (fun_app$e (plus$a ?v0) ?v1) (fun_app$e (plus$a ?v2) ?v1)) (= ?v0 ?v2)) ))
(assert (forall ((?v0 Nat$) (?v1 Nat$) (?v2 A_llist$)) (= (fun_app$ (ldropn$ ?v0) (fun_app$ (ldropn$ ?v1) ?v2)) (fun_app$ (ldropn$ (fun_app$e (plus$a ?v0) ?v1)) ?v2)) ))
(assert (forall ((?v0 A_llist$)) (! (= (fun_app$ (ldropn$ zero$a) ?v0) ?v0) :pattern ((fun_app$ (ldropn$ zero$a) ?v0)))))
(assert (forall ((?v0 Enat$)) (= (fun_app$c (plus$ zero$) ?v0) ?v0) ))
(assert (forall ((?v0 Nat$)) (= (fun_app$e (plus$a zero$a) ?v0) ?v0) ))
(assert (forall ((?v0 Nat$) (?v1 Nat$)) (! (= (fun_app$c (plus$ (enat$ ?v0)) (enat$ ?v1)) (enat$ (fun_app$e (plus$a ?v0) ?v1))) :pattern ((fun_app$c (plus$ (enat$ ?v0)) (enat$ ?v1))))))
(assert (forall ((?v0 Nat$) (?v1 Nat$)) (! (= (fun_app$a (less$ (enat$ ?v0)) (enat$ ?v1)) (fun_app$d (less$a ?v0) ?v1)) :pattern ((fun_app$a (less$ (enat$ ?v0)) (enat$ ?v1))))))
(assert (= (the_enat$ zero$) zero$a))
(assert (forall ((?v0 Enat$) (?v1 Nat$)) (=> (and (fun_app$a (less$ ?v0) (enat$ ?v1)) (forall ((?v2 Nat$)) (=> (and (= ?v0 (enat$ ?v2)) (fun_app$d (less$a ?v2) ?v1)) false) )) false) ))
(assert (= zero$ (enat$ zero$a)))
(assert (forall ((?v0 Nat$)) (= (= zero$ (enat$ ?v0)) (= ?v0 zero$a)) ))
(assert (forall ((?v0 Nat$)) (= (= (enat$ ?v0) zero$) (= ?v0 zero$a)) ))
(assert (forall ((?v0 Enat$)) (= (= zero$ ?v0) (= ?v0 zero$)) ))
(assert (forall ((?v0 Nat$)) (= (= zero$a ?v0) (= ?v0 zero$a)) ))
(assert (forall ((?v0 Enat$) (?v1 Enat$) (?v2 Enat$) (?v3 Enat$)) (=> (and (= ?v0 ?v1) (= ?v2 ?v3)) (= (fun_app$c (plus$ ?v0) ?v2) (fun_app$c (plus$ ?v1) ?v3))) ))
(assert (forall ((?v0 Nat$) (?v1 Nat$) (?v2 Nat$) (?v3 Nat$)) (=> (and (= ?v0 ?v1) (= ?v2 ?v3)) (= (fun_app$e (plus$a ?v0) ?v2) (fun_app$e (plus$a ?v1) ?v3))) ))
(assert (forall ((?v0 Nat$) (?v1 Nat$) (?v2 Nat$)) (=> (= (fun_app$e (plus$a ?v0) ?v1) (fun_app$e (plus$a ?v0) ?v2)) (= ?v1 ?v2)) ))
(assert (forall ((?v0 Nat$) (?v1 Nat$) (?v2 Nat$)) (=> (= (fun_app$e (plus$a ?v0) ?v1) (fun_app$e (plus$a ?v2) ?v1)) (= ?v0 ?v2)) ))
(assert (forall ((?v0 Enat$) (?v1 Enat$)) (= (fun_app$c (plus$ ?v0) ?v1) (fun_app$c (plus$ ?v1) ?v0)) ))
(assert (forall ((?v0 Nat$) (?v1 Nat$)) (= (fun_app$e (plus$a ?v0) ?v1) (fun_app$e (plus$a ?v1) ?v0)) ))
(assert (forall ((?v0 Enat$) (?v1 Enat$) (?v2 Enat$)) (= (fun_app$c (plus$ ?v0) (fun_app$c (plus$ ?v1) ?v2)) (fun_app$c (plus$ ?v1) (fun_app$c (plus$ ?v0) ?v2))) ))
(assert (forall ((?v0 Nat$) (?v1 Nat$) (?v2 Nat$)) (= (fun_app$e (plus$a ?v0) (fun_app$e (plus$a ?v1) ?v2)) (fun_app$e (plus$a ?v1) (fun_app$e (plus$a ?v0) ?v2))) ))
(assert (forall ((?v0 Enat$) (?v1 Enat$) (?v2 Enat$)) (= (fun_app$c (plus$ (fun_app$c (plus$ ?v0) ?v1)) ?v2) (fun_app$c (plus$ ?v0) (fun_app$c (plus$ ?v1) ?v2))) ))
(assert (forall ((?v0 Nat$) (?v1 Nat$) (?v2 Nat$)) (= (fun_app$e (plus$a (fun_app$e (plus$a ?v0) ?v1)) ?v2) (fun_app$e (plus$a ?v0) (fun_app$e (plus$a ?v1) ?v2))) ))
(assert (forall ((?v0 Enat$) (?v1 Enat$) (?v2 Enat$)) (= (fun_app$c (plus$ (fun_app$c (plus$ ?v0) ?v1)) ?v2) (fun_app$c (plus$ ?v0) (fun_app$c (plus$ ?v1) ?v2))) ))
(assert (forall ((?v0 Nat$) (?v1 Nat$) (?v2 Nat$)) (= (fun_app$e (plus$a (fun_app$e (plus$a ?v0) ?v1)) ?v2) (fun_app$e (plus$a ?v0) (fun_app$e (plus$a ?v1) ?v2))) ))
(assert (forall ((?v0 Nat$) (?v1 Enat$) (?v2 Nat$)) (=> (fun_app$a (less$ (enat$ ?v0)) ?v1) (fun_app$a (less$ (enat$ (fun_app$e (plus$a ?v2) ?v0))) (fun_app$c (plus$ (enat$ ?v2)) ?v1))) ))
(assert (forall ((?v0 Nat$) (?v1 Nat$) (?v2 Enat$)) (=> (fun_app$d (less$a ?v0) ?v1) (fun_app$a (less$ (enat$ ?v0)) (fun_app$c (plus$ (enat$ ?v1)) ?v2))) ))
(assert (forall ((?v0 Enat$)) (= (fun_app$c (plus$ zero$) ?v0) ?v0) ))
(assert (forall ((?v0 Nat$)) (= (fun_app$e (plus$a zero$a) ?v0) ?v0) ))
(assert (forall ((?v0 Enat$)) (= (fun_app$c (plus$ ?v0) zero$) ?v0) ))
(assert (forall ((?v0 Nat$)) (= (fun_app$e (plus$a ?v0) zero$a) ?v0) ))
(assert (forall ((?v0 Nat$) (?v1 Nat$) (?v2 Nat$)) (=> (fun_app$d (less$a ?v0) ?v1) (fun_app$d (less$a (fun_app$e (plus$a ?v2) ?v0)) (fun_app$e (plus$a ?v2) ?v1))) ))
(assert (forall ((?v0 Nat$) (?v1 Nat$) (?v2 Nat$)) (=> (fun_app$d (less$a ?v0) ?v1) (fun_app$d (less$a (fun_app$e (plus$a ?v0) ?v2)) (fun_app$e (plus$a ?v1) ?v2))) ))
(assert (forall ((?v0 Nat$) (?v1 Nat$) (?v2 Nat$) (?v3 Nat$)) (=> (and (fun_app$d (less$a ?v0) ?v1) (fun_app$d (less$a ?v2) ?v3)) (fun_app$d (less$a (fun_app$e (plus$a ?v0) ?v2)) (fun_app$e (plus$a ?v1) ?v3))) ))
(assert (forall ((?v0 Nat$) (?v1 Nat$) (?v2 Nat$)) (=> (fun_app$d (less$a (fun_app$e (plus$a ?v0) ?v1)) (fun_app$e (plus$a ?v0) ?v2)) (fun_app$d (less$a ?v1) ?v2)) ))
(assert (forall ((?v0 Nat$) (?v1 Nat$) (?v2 Nat$)) (=> (fun_app$d (less$a (fun_app$e (plus$a ?v0) ?v1)) (fun_app$e (plus$a ?v2) ?v1)) (fun_app$d (less$a ?v0) ?v2)) ))
(assert (forall ((?v0 Nat$) (?v1 Nat$) (?v2 Nat$) (?v3 Nat$)) (=> (and (fun_app$d (less$a ?v0) ?v1) (fun_app$d (less$a ?v2) ?v3)) (fun_app$d (less$a (fun_app$e (plus$a ?v0) ?v2)) (fun_app$e (plus$a ?v1) ?v3))) ))
(assert (forall ((?v0 Nat$) (?v1 Nat$) (?v2 Nat$) (?v3 Nat$)) (=> (and (fun_app$d (less$a ?v0) ?v1) (= ?v2 ?v3)) (fun_app$d (less$a (fun_app$e (plus$a ?v0) ?v2)) (fun_app$e (plus$a ?v1) ?v3))) ))
(assert (forall ((?v0 Nat$) (?v1 Nat$) (?v2 Nat$) (?v3 Nat$)) (=> (and (= ?v0 ?v1) (fun_app$d (less$a ?v2) ?v3)) (fun_app$d (less$a (fun_app$e (plus$a ?v0) ?v2)) (fun_app$e (plus$a ?v1) ?v3))) ))
(assert (forall ((?v0 Nat$) (?v1 Nat$)) (=> (and (fun_app$d (less$a zero$a) ?v0) (fun_app$d (less$a zero$a) ?v1)) (fun_app$d (less$a zero$a) (fun_app$e (plus$a ?v0) ?v1))) ))
(assert (forall ((?v0 Nat$) (?v1 Nat$)) (=> (and (fun_app$d (less$a ?v0) zero$a) (fun_app$d (less$a ?v1) zero$a)) (fun_app$d (less$a (fun_app$e (plus$a ?v0) ?v1)) zero$a)) ))
(assert (forall ((?v0 Nat$) (?v1 Nat$) (?v2 Nat$)) (=> (and (fun_app$d (less$a zero$a) ?v0) (fun_app$d (less$a ?v1) ?v2)) (fun_app$d (less$a ?v1) (fun_app$e (plus$a ?v0) ?v2))) ))
(assert (= (size_enat$ infinity$) zero$a))
(assert (forall ((?v0 Nat$)) (! (= (size_enat$ (enat$ ?v0)) zero$a) :pattern ((enat$ ?v0)))))
(assert (forall ((?v0 Nat$) (?v1 A_llist$)) (! (= (fun_app$b (gen_llength$ ?v0) ?v1) (fun_app$c (plus$ (enat$ ?v0)) (fun_app$b llength$ ?v1))) :pattern ((fun_app$b (gen_llength$ ?v0) ?v1)))))
(assert (forall ((?v0 Nat$) (?v1 Nat$)) (= (= ?v0 (fun_app$e (plus$a ?v0) ?v1)) (= ?v1 zero$a)) ))
(assert (not (fun_app$d (less$a zero$a) zero$a)))
(assert (forall ((?v0 Nat$)) (! (= (fun_app$b (gen_llength$ ?v0) lNil$) (enat$ ?v0)) :pattern ((gen_llength$ ?v0)))))
(assert (= llength$ (gen_llength$ zero$a)))
(assert (forall ((?v0 Nat$) (?v1 Nat$)) (= (fun_app$d (less$a zero$a) (fun_app$e (plus$a ?v0) ?v1)) (or (fun_app$d (less$a zero$a) ?v0) (fun_app$d (less$a zero$a) ?v1))) ))
(assert (forall ((?v0 Nat$) (?v1 Nat$) (?v2 Nat$)) (= (fun_app$d (less$a (fun_app$e (plus$a ?v0) ?v1)) (fun_app$e (plus$a ?v0) ?v2)) (fun_app$d (less$a ?v1) ?v2)) ))
(assert (forall ((?v0 Nat$) (?v1 Nat$)) (= (= (fun_app$e (plus$a ?v0) ?v1) zero$a) (and (= ?v0 zero$a) (= ?v1 zero$a))) ))
(assert (forall ((?v0 Nat$)) (! (= (fun_app$e (plus$a ?v0) zero$a) ?v0) :pattern ((plus$a ?v0)))))
(assert (forall ((?v0 Nat$)) (= (not (= ?v0 zero$a)) (fun_app$d (less$a zero$a) ?v0)) ))
(assert (forall ((?v0 Nat$)) (! (= (fun_app$d (less$a ?v0) zero$a) false) :pattern ((less$a ?v0)))))
(assert (forall ((?v0 Nat$)) (= (not (fun_app$d (less$a zero$a) ?v0)) (= ?v0 zero$a)) ))
(assert (forall ((?v0 Nat$)) (=> (and (=> (= ?v0 zero$a) false) (=> (not (= ?v0 zero$a)) false)) false) ))
(assert (forall ((?v0 Nat$)) (not (fun_app$d (less$a ?v0) ?v0)) ))
(assert (forall ((?v0 Nat$) (?v1 Nat$)) (=> (and (not (= ?v0 ?v1)) (and (=> (fun_app$d (less$a ?v0) ?v1) false) (=> (fun_app$d (less$a ?v1) ?v0) false))) false) ))
(assert (forall ((?v0 Nat$)) (=> (fun_app$d (less$a ?v0) ?v0) false) ))
(assert (forall ((?v0 Nat$) (?v1 Nat$)) (=> (fun_app$d (less$a ?v0) ?v1) (not (= ?v1 ?v0))) ))
(assert (forall ((?v0 Nat$) (?v1 Nat$)) (=> (fun_app$d (less$a ?v0) ?v1) (not (= ?v0 ?v1))) ))
(assert (forall ((?v0 Nat_bool_fun$) (?v1 Nat$)) (=> (forall ((?v2 Nat$)) (=> (forall ((?v3 Nat$)) (=> (fun_app$d (less$a ?v3) ?v2) (fun_app$d ?v0 ?v3)) ) (fun_app$d ?v0 ?v2)) ) (fun_app$d ?v0 ?v1)) ))
(assert (forall ((?v0 Nat_bool_fun$) (?v1 Nat$)) (=> (forall ((?v2 Nat$)) (=> (not (fun_app$d ?v0 ?v2)) (exists ((?v3 Nat$)) (and (fun_app$d (less$a ?v3) ?v2) (not (fun_app$d ?v0 ?v3))) )) ) (fun_app$d ?v0 ?v1)) ))
(assert (forall ((?v0 Nat$) (?v1 Nat$) (?v2 Nat_nat_bool_fun_fun$)) (=> (and (=> (fun_app$d (less$a ?v0) ?v1) (fun_app$d (fun_app$f ?v2 ?v1) ?v0)) (and (=> (= ?v0 ?v1) (fun_app$d (fun_app$f ?v2 ?v1) ?v0)) (=> (fun_app$d (less$a ?v1) ?v0) (fun_app$d (fun_app$f ?v2 ?v1) ?v0)))) (fun_app$d (fun_app$f ?v2 ?v1) ?v0)) ))
(assert (forall ((?v0 Nat$) (?v1 Nat$)) (= (not (= ?v0 ?v1)) (or (fun_app$d (less$a ?v0) ?v1) (fun_app$d (less$a ?v1) ?v0))) ))
(assert (forall ((?v0 Nat$) (?v1 Nat$) (?v2 Nat$)) (= (= (fun_app$e (plus$a ?v0) ?v1) (fun_app$e (plus$a ?v0) ?v2)) (= ?v1 ?v2)) ))
(assert (forall ((?v0 Nat$) (?v1 Nat$) (?v2 Nat$)) (= (= (fun_app$e (plus$a ?v0) ?v1) (fun_app$e (plus$a ?v2) ?v1)) (= ?v0 ?v2)) ))
(assert (forall ((?v0 Nat$)) (not (fun_app$d (less$a ?v0) zero$a)) ))
(assert (forall ((?v0 Nat_bool_fun$) (?v1 Nat$)) (=> (and (fun_app$d ?v0 zero$a) (forall ((?v2 Nat$)) (=> (and (fun_app$d (less$a zero$a) ?v2) (not (fun_app$d ?v0 ?v2))) (exists ((?v3 Nat$)) (and (fun_app$d (less$a ?v3) ?v2) (not (fun_app$d ?v0 ?v3))) )) )) (fun_app$d ?v0 ?v1)) ))
(assert (forall ((?v0 Nat$)) (=> (fun_app$d (less$a ?v0) zero$a) false) ))
(assert (forall ((?v0 Nat$) (?v1 Nat$)) (=> (fun_app$d (less$a ?v0) ?v1) (not (= ?v1 zero$a))) ))
(assert (forall ((?v0 Nat$)) (=> (=> (= ?v0 zero$a) false) (fun_app$d (less$a zero$a) ?v0)) ))
(assert (forall ((?v0 Nat$) (?v1 Nat$)) (=> (= (fun_app$e (plus$a ?v0) ?v1) ?v0) (= ?v1 zero$a)) ))
(assert (forall ((?v0 Nat$)) (! (= (fun_app$e (plus$a zero$a) ?v0) ?v0) :pattern ((fun_app$e (plus$a zero$a) ?v0)))))
(assert (forall ((?v0 Nat$) (?v1 Nat$)) (not (fun_app$d (less$a (fun_app$e (plus$a ?v0) ?v1)) ?v0)) ))
(assert (forall ((?v0 Nat$) (?v1 Nat$)) (not (fun_app$d (less$a (fun_app$e (plus$a ?v0) ?v1)) ?v1)) ))
(assert (forall ((?v0 Nat$) (?v1 Nat$) (?v2 Nat$)) (=> (fun_app$d (less$a ?v0) ?v1) (fun_app$d (less$a ?v0) (fun_app$e (plus$a ?v1) ?v2))) ))
(assert (forall ((?v0 Nat$) (?v1 Nat$) (?v2 Nat$)) (=> (fun_app$d (less$a ?v0) ?v1) (fun_app$d (less$a ?v0) (fun_app$e (plus$a ?v2) ?v1))) ))
(assert (forall ((?v0 Nat$) (?v1 Nat$) (?v2 Nat$)) (=> (fun_app$d (less$a ?v0) ?v1) (fun_app$d (less$a (fun_app$e (plus$a ?v0) ?v2)) (fun_app$e (plus$a ?v1) ?v2))) ))
(assert (forall ((?v0 Nat$) (?v1 Nat$) (?v2 Nat$) (?v3 Nat$)) (=> (and (fun_app$d (less$a ?v0) ?v1) (fun_app$d (less$a ?v2) ?v3)) (fun_app$d (less$a (fun_app$e (plus$a ?v0) ?v2)) (fun_app$e (plus$a ?v1) ?v3))) ))
(assert (forall ((?v0 Nat$) (?v1 Nat$) (?v2 Nat$) (?v3 Nat$)) (=> (and (fun_app$d (less$a ?v0) ?v1) (= (fun_app$e (plus$a ?v2) ?v1) (fun_app$e (plus$a ?v0) ?v3))) (fun_app$d (less$a ?v2) ?v3)) ))
(assert (forall ((?v0 Nat$) (?v1 Nat$) (?v2 Nat$)) (=> (fun_app$d (less$a (fun_app$e (plus$a ?v0) ?v1)) ?v2) (fun_app$d (less$a ?v0) ?v2)) ))
(assert (forall ((?v0 Nat$) (?v1 Nat$)) (=> (fun_app$d (less$a ?v0) ?v1) (exists ((?v2 Nat$)) (and (fun_app$d (less$a zero$a) ?v2) (= (fun_app$e (plus$a ?v0) ?v2) ?v1)) )) ))
(assert (= (size$ infinity$) zero$a))
(assert (forall ((?v0 Nat$)) (! (= (size$ (enat$ ?v0)) zero$a) :pattern ((enat$ ?v0)))))
(assert (forall ((?v0 Nat_nat_bool_fun_fun$) (?v1 Nat$) (?v2 Nat$)) (=> (and (forall ((?v3 Nat$) (?v4 Nat$)) (= (fun_app$d (fun_app$f ?v0 ?v3) ?v4) (fun_app$d (fun_app$f ?v0 ?v4) ?v3)) ) (and (forall ((?v3 Nat$)) (fun_app$d (fun_app$f ?v0 ?v3) zero$a) ) (forall ((?v3 Nat$) (?v4 Nat$)) (=> (fun_app$d (fun_app$f ?v0 ?v3) ?v4) (fun_app$d (fun_app$f ?v0 ?v3) (fun_app$e (plus$a ?v3) ?v4))) ))) (fun_app$d (fun_app$f ?v0 ?v1) ?v2)) ))
(assert (forall ((?v0 Nat$)) (! (= (fun_app$c (times$ infinity$) (enat$ ?v0)) (ite (= ?v0 zero$a) zero$ infinity$)) :pattern ((enat$ ?v0)))))
(assert (forall ((?v0 Enat$)) (= (fun_app$c (times$ zero$) ?v0) zero$) ))
(assert (forall ((?v0 Nat$)) (= (fun_app$e (times$a zero$a) ?v0) zero$a) ))
(assert (forall ((?v0 Enat$)) (= (fun_app$c (times$ ?v0) zero$) zero$) ))
(assert (forall ((?v0 Nat$)) (= (fun_app$e (times$a ?v0) zero$a) zero$a) ))
(assert (forall ((?v0 Nat$) (?v1 Nat$)) (= (= (fun_app$e (times$a ?v0) ?v1) zero$a) (or (= ?v0 zero$a) (= ?v1 zero$a))) ))
(assert (forall ((?v0 Nat$) (?v1 Nat$) (?v2 Nat$)) (= (= (fun_app$e (times$a ?v0) ?v1) (fun_app$e (times$a ?v0) ?v2)) (or (= ?v0 zero$a) (= ?v1 ?v2))) ))
(assert (forall ((?v0 Nat$) (?v1 Nat$) (?v2 Nat$)) (= (= (fun_app$e (times$a ?v0) ?v1) (fun_app$e (times$a ?v2) ?v1)) (or (= ?v1 zero$a) (= ?v0 ?v2))) ))
(assert (forall ((?v0 Enat$) (?v1 Enat$)) (= (= (fun_app$c (times$ ?v0) ?v1) zero$) (or (= ?v0 zero$) (= ?v1 zero$))) ))
(assert (= (fun_app$c (times$ infinity$) infinity$) infinity$))
(assert (forall ((?v0 Nat$)) (! (= (fun_app$c (times$ (enat$ ?v0)) infinity$) (ite (= ?v0 zero$a) zero$ infinity$)) :pattern ((enat$ ?v0)))))
(assert (forall ((?v0 Enat$) (?v1 Enat$)) (= (fun_app$c (times$ ?v0) ?v1) (fun_app$c (times$ ?v1) ?v0)) ))
(assert (forall ((?v0 Nat$) (?v1 Nat$)) (= (fun_app$e (times$a ?v0) ?v1) (fun_app$e (times$a ?v1) ?v0)) ))
(assert (forall ((?v0 Enat$) (?v1 Enat$) (?v2 Enat$)) (= (fun_app$c (times$ ?v0) (fun_app$c (times$ ?v1) ?v2)) (fun_app$c (times$ ?v1) (fun_app$c (times$ ?v0) ?v2))) ))
(assert (forall ((?v0 Nat$) (?v1 Nat$) (?v2 Nat$)) (= (fun_app$e (times$a ?v0) (fun_app$e (times$a ?v1) ?v2)) (fun_app$e (times$a ?v1) (fun_app$e (times$a ?v0) ?v2))) ))
(assert (forall ((?v0 Enat$) (?v1 Enat$) (?v2 Enat$)) (= (fun_app$c (times$ (fun_app$c (times$ ?v0) ?v1)) ?v2) (fun_app$c (times$ ?v0) (fun_app$c (times$ ?v1) ?v2))) ))
(assert (forall ((?v0 Nat$) (?v1 Nat$) (?v2 Nat$)) (= (fun_app$e (times$a (fun_app$e (times$a ?v0) ?v1)) ?v2) (fun_app$e (times$a ?v0) (fun_app$e (times$a ?v1) ?v2))) ))
(assert (forall ((?v0 Enat$) (?v1 Enat$) (?v2 Enat$)) (= (fun_app$c (times$ (fun_app$c (times$ ?v0) ?v1)) ?v2) (fun_app$c (times$ ?v0) (fun_app$c (times$ ?v1) ?v2))) ))
(assert (forall ((?v0 Nat$) (?v1 Nat$) (?v2 Nat$)) (= (fun_app$e (times$a (fun_app$e (times$a ?v0) ?v1)) ?v2) (fun_app$e (times$a ?v0) (fun_app$e (times$a ?v1) ?v2))) ))
(assert (forall ((?v0 Nat$) (?v1 Nat$) (?v2 Nat$) (?v3 Nat$)) (= (= (fun_app$e (plus$a (fun_app$e (times$a ?v0) ?v1)) (fun_app$e (times$a ?v2) ?v3)) (fun_app$e (plus$a (fun_app$e (times$a ?v0) ?v3)) (fun_app$e (times$a ?v2) ?v1))) (or (= ?v0 ?v2) (= ?v1 ?v3))) ))
(assert (forall ((?v0 Enat$) (?v1 Enat$) (?v2 Enat$) (?v3 Enat$)) (= (fun_app$c (plus$ (fun_app$c (times$ ?v0) ?v1)) (fun_app$c (plus$ (fun_app$c (times$ ?v2) ?v1)) ?v3)) (fun_app$c (plus$ (fun_app$c (times$ (fun_app$c (plus$ ?v0) ?v2)) ?v1)) ?v3)) ))
(assert (forall ((?v0 Nat$) (?v1 Nat$) (?v2 Nat$) (?v3 Nat$)) (= (fun_app$e (plus$a (fun_app$e (times$a ?v0) ?v1)) (fun_app$e (plus$a (fun_app$e (times$a ?v2) ?v1)) ?v3)) (fun_app$e (plus$a (fun_app$e (times$a (fun_app$e (plus$a ?v0) ?v2)) ?v1)) ?v3)) ))
(assert (forall ((?v0 Enat$) (?v1 Enat$) (?v2 Enat$)) (= (fun_app$c (times$ (fun_app$c (plus$ ?v0) ?v1)) ?v2) (fun_app$c (plus$ (fun_app$c (times$ ?v0) ?v2)) (fun_app$c (times$ ?v1) ?v2))) ))
(assert (forall ((?v0 Nat$) (?v1 Nat$) (?v2 Nat$)) (= (fun_app$e (times$a (fun_app$e (plus$a ?v0) ?v1)) ?v2) (fun_app$e (plus$a (fun_app$e (times$a ?v0) ?v2)) (fun_app$e (times$a ?v1) ?v2))) ))
(assert (forall ((?v0 Enat$) (?v1 Enat$) (?v2 Enat$)) (= (fun_app$c (times$ (fun_app$c (plus$ ?v0) ?v1)) ?v2) (fun_app$c (plus$ (fun_app$c (times$ ?v0) ?v2)) (fun_app$c (times$ ?v1) ?v2))) ))
(assert (forall ((?v0 Nat$) (?v1 Nat$) (?v2 Nat$)) (= (fun_app$e (times$a (fun_app$e (plus$a ?v0) ?v1)) ?v2) (fun_app$e (plus$a (fun_app$e (times$a ?v0) ?v2)) (fun_app$e (times$a ?v1) ?v2))) ))
(assert (forall ((?v0 Enat$) (?v1 Enat$) (?v2 Enat$)) (= (fun_app$c (times$ ?v0) (fun_app$c (plus$ ?v1) ?v2)) (fun_app$c (plus$ (fun_app$c (times$ ?v0) ?v1)) (fun_app$c (times$ ?v0) ?v2))) ))
(assert (forall ((?v0 Nat$) (?v1 Nat$) (?v2 Nat$)) (= (fun_app$e (times$a ?v0) (fun_app$e (plus$a ?v1) ?v2)) (fun_app$e (plus$a (fun_app$e (times$a ?v0) ?v1)) (fun_app$e (times$a ?v0) ?v2))) ))
(assert (forall ((?v0 Nat$) (?v1 Nat$) (?v2 Nat$) (?v3 Nat$)) (= (and (not (= ?v0 ?v1)) (not (= ?v2 ?v3))) (not (= (fun_app$e (plus$a (fun_app$e (times$a ?v0) ?v2)) (fun_app$e (times$a ?v1) ?v3)) (fun_app$e (plus$a (fun_app$e (times$a ?v0) ?v3)) (fun_app$e (times$a ?v1) ?v2))))) ))
(assert (forall ((?v0 Nat$) (?v1 Nat$)) (=> (= (fun_app$e (times$a ?v0) ?v1) zero$a) (or (= ?v0 zero$a) (= ?v1 zero$a))) ))
(assert (forall ((?v0 Enat$) (?v1 Enat$)) (=> (not (= (fun_app$c (times$ ?v0) ?v1) zero$)) (and (not (= ?v0 zero$)) (not (= ?v1 zero$)))) ))
(assert (forall ((?v0 Nat$) (?v1 Nat$)) (=> (not (= (fun_app$e (times$a ?v0) ?v1) zero$a)) (and (not (= ?v0 zero$a)) (not (= ?v1 zero$a)))) ))
(assert (forall ((?v0 Nat$) (?v1 Nat$)) (=> (and (not (= ?v0 zero$a)) (not (= ?v1 zero$a))) (not (= (fun_app$e (times$a ?v0) ?v1) zero$a))) ))
(assert (forall ((?v0 Nat$) (?v1 Nat$) (?v2 Nat$)) (=> (not (= ?v0 zero$a)) (= (= (fun_app$e (times$a ?v1) ?v0) (fun_app$e (times$a ?v2) ?v0)) (= ?v1 ?v2))) ))
(assert (forall ((?v0 Nat$) (?v1 Nat$) (?v2 Nat$)) (=> (not (= ?v0 zero$a)) (= (= (fun_app$e (times$a ?v0) ?v1) (fun_app$e (times$a ?v0) ?v2)) (= ?v1 ?v2))) ))
(assert (forall ((?v0 Nat$) (?v1 Nat$) (?v2 Nat$)) (=> (and (fun_app$d (less$a ?v0) ?v1) (fun_app$d (less$a zero$a) ?v2)) (fun_app$d (less$a (fun_app$e (times$a ?v2) ?v0)) (fun_app$e (times$a ?v2) ?v1))) ))
(assert (forall ((?v0 Nat$) (?v1 Nat$) (?v2 Nat$)) (=> (and (fun_app$d (less$a ?v0) ?v1) (fun_app$d (less$a zero$a) ?v2)) (fun_app$d (less$a (fun_app$e (times$a ?v0) ?v2)) (fun_app$e (times$a ?v1) ?v2))) ))
(assert (forall ((?v0 Nat$) (?v1 Nat$) (?v2 Nat$)) (=> (and (fun_app$d (less$a ?v0) ?v1) (fun_app$d (less$a zero$a) ?v2)) (fun_app$d (less$a (fun_app$e (times$a ?v2) ?v0)) (fun_app$e (times$a ?v2) ?v1))) ))
(assert (forall ((?v0 Nat$) (?v1 Nat$)) (=> (and (fun_app$d (less$a ?v0) zero$a) (fun_app$d (less$a zero$a) ?v1)) (fun_app$d (less$a (fun_app$e (times$a ?v0) ?v1)) zero$a)) ))
(assert (forall ((?v0 Nat$) (?v1 Nat$)) (=> (and (fun_app$d (less$a zero$a) (fun_app$e (times$a ?v0) ?v1)) (fun_app$d (less$a zero$a) ?v1)) (fun_app$d (less$a zero$a) ?v0)) ))
(assert (forall ((?v0 Nat$) (?v1 Nat$)) (=> (and (fun_app$d (less$a zero$a) (fun_app$e (times$a ?v0) ?v1)) (fun_app$d (less$a zero$a) ?v0)) (fun_app$d (less$a zero$a) ?v1)) ))
(assert (forall ((?v0 Nat$) (?v1 Nat$)) (=> (and (fun_app$d (less$a zero$a) ?v0) (fun_app$d (less$a ?v1) zero$a)) (fun_app$d (less$a (fun_app$e (times$a ?v1) ?v0)) zero$a)) ))
(assert (forall ((?v0 Nat$) (?v1 Nat$)) (=> (and (fun_app$d (less$a zero$a) ?v0) (fun_app$d (less$a ?v1) zero$a)) (fun_app$d (less$a (fun_app$e (times$a ?v0) ?v1)) zero$a)) ))
(assert (forall ((?v0 Nat$) (?v1 Nat$)) (=> (and (fun_app$d (less$a zero$a) ?v0) (fun_app$d (less$a zero$a) ?v1)) (fun_app$d (less$a zero$a) (fun_app$e (times$a ?v0) ?v1))) ))
(assert (forall ((?v0 Nat$) (?v1 Nat$) (?v2 Nat$) (?v3 Nat$) (?v4 Nat$)) (=> (and (not (= ?v0 zero$a)) (and (= ?v1 ?v2) (not (= ?v3 ?v4)))) (not (= (fun_app$e (plus$a ?v1) (fun_app$e (times$a ?v0) ?v3)) (fun_app$e (plus$a ?v2) (fun_app$e (times$a ?v0) ?v4))))) ))
(assert (forall ((?v0 Enat$) (?v1 Enat$)) (= (= (fun_app$c (times$ ?v0) ?v1) infinity$) (or (and (= ?v0 infinity$) (not (= ?v1 zero$))) (and (= ?v1 infinity$) (not (= ?v0 zero$))))) ))
(assert (forall ((?v0 Enat$) (?v1 Enat$)) (= (fun_app$a (less$ zero$) (fun_app$c (times$ ?v0) ?v1)) (and (fun_app$a (less$ zero$) ?v0) (fun_app$a (less$ zero$) ?v1))) ))
(assert (forall ((?v0 Enat$)) (! (=> (fun_app$a (less$ zero$) ?v0) (= (fun_app$c (times$ ?v0) infinity$) infinity$)) :pattern ((times$ ?v0)))))
(assert (forall ((?v0 Enat$)) (! (=> (fun_app$a (less$ zero$) ?v0) (= (fun_app$c (times$ infinity$) ?v0) infinity$)) :pattern ((fun_app$c (times$ infinity$) ?v0)))))
(assert (forall ((?v0 Nat$)) (! (= (fun_app$e (times$a ?v0) zero$a) zero$a) :pattern ((times$a ?v0)))))
(assert (forall ((?v0 Nat$) (?v1 Nat$)) (= (= (fun_app$e (times$a ?v0) ?v1) zero$a) (or (= ?v0 zero$a) (= ?v1 zero$a))) ))
(assert (forall ((?v0 Nat$) (?v1 Nat$) (?v2 Nat$)) (= (= (fun_app$e (times$a ?v0) ?v1) (fun_app$e (times$a ?v0) ?v2)) (or (= ?v1 ?v2) (= ?v0 zero$a))) ))
(assert (forall ((?v0 Nat$) (?v1 Nat$) (?v2 Nat$)) (= (= (fun_app$e (times$a ?v0) ?v1) (fun_app$e (times$a ?v2) ?v1)) (or (= ?v0 ?v2) (= ?v1 zero$a))) ))
(assert (forall ((?v0 Nat$) (?v1 Nat$)) (= (fun_app$d (less$a zero$a) (fun_app$e (times$a ?v0) ?v1)) (and (fun_app$d (less$a zero$a) ?v0) (fun_app$d (less$a zero$a) ?v1))) ))
(assert (forall ((?v0 Nat$) (?v1 Nat$) (?v2 Nat$)) (= (fun_app$d (less$a (fun_app$e (times$a ?v0) ?v1)) (fun_app$e (times$a ?v2) ?v1)) (and (fun_app$d (less$a zero$a) ?v1) (fun_app$d (less$a ?v0) ?v2))) ))
(assert (forall ((?v0 Nat$) (?v1 Nat$)) (! (= (fun_app$c (times$ (enat$ ?v0)) (enat$ ?v1)) (enat$ (fun_app$e (times$a ?v0) ?v1))) :pattern ((fun_app$c (times$ (enat$ ?v0)) (enat$ ?v1))))))
(assert (forall ((?v0 Nat$) (?v1 Nat$) (?v2 Nat$)) (= (fun_app$e (times$a (fun_app$e (plus$a ?v0) ?v1)) ?v2) (fun_app$e (plus$a (fun_app$e (times$a ?v0) ?v2)) (fun_app$e (times$a ?v1) ?v2))) ))
(assert (forall ((?v0 Nat$) (?v1 Nat$) (?v2 Nat$)) (= (fun_app$e (times$a ?v0) (fun_app$e (plus$a ?v1) ?v2)) (fun_app$e (plus$a (fun_app$e (times$a ?v0) ?v1)) (fun_app$e (times$a ?v0) ?v2))) ))
(assert (forall ((?v0 Nat$)) (! (= (fun_app$e (times$a zero$a) ?v0) zero$a) :pattern ((fun_app$e (times$a zero$a) ?v0)))))
(assert (forall ((?v0 Nat$) (?v1 Nat$) (?v2 Nat$)) (=> (and (fun_app$d (less$a ?v0) ?v1) (fun_app$d (less$a zero$a) ?v2)) (fun_app$d (less$a (fun_app$e (times$a ?v0) ?v2)) (fun_app$e (times$a ?v1) ?v2))) ))
(assert (forall ((?v0 Nat$) (?v1 Nat$) (?v2 Nat$)) (=> (and (fun_app$d (less$a ?v0) ?v1) (fun_app$d (less$a zero$a) ?v2)) (fun_app$d (less$a (fun_app$e (times$a ?v2) ?v0)) (fun_app$e (times$a ?v2) ?v1))) ))
(assert (forall ((?v0 Nat$) (?v1 Nat$) (?v2 Nat$)) (= (fun_app$d (less$a (fun_app$e (times$a ?v0) ?v1)) (fun_app$e (times$a ?v0) ?v2)) (and (fun_app$d (less$a zero$a) ?v0) (fun_app$d (less$a ?v1) ?v2))) ))
(assert (forall ((?v0 Nat$) (?v1 Nat$) (?v2 Nat$)) (= (= (fun_app$e (times$a ?v0) ?v1) (fun_app$e (times$a ?v0) ?v2)) (or (= ?v0 zero$a) (= ?v1 ?v2))) ))
(assert (forall ((?v0 Nat$) (?v1 Nat$) (?v2 Nat$) (?v3 Nat$)) (= (fun_app$e (plus$a (fun_app$e (times$a ?v0) ?v1)) (fun_app$e (plus$a (fun_app$e (times$a ?v2) ?v1)) ?v3)) (fun_app$e (plus$a (fun_app$e (times$a (fun_app$e (plus$a ?v0) ?v2)) ?v1)) ?v3)) ))
(assert (forall ((?v0 Nat$) (?v1 Nat$) (?v2 Nat$)) (=> (fun_app$d (less$a zero$a) ?v0) (= (fun_app$d (less$a (fun_app$e (times$a ?v0) ?v1)) (fun_app$e (times$a ?v0) ?v2)) (fun_app$d (less$a ?v1) ?v2))) ))
(assert (forall ((?v0 Nat$) (?v1 Nat$) (?v2 Nat$)) (=> (fun_app$d (less$a zero$a) ?v0) (= (= (fun_app$e (times$a ?v0) ?v1) (fun_app$e (times$a ?v0) ?v2)) (= ?v1 ?v2))) ))
(assert (forall ((?v0 Nat$) (?v1 A_llist$)) (= (= (fun_app$ (ldropn$ ?v0) ?v1) lNil$) (fun_app$a (less_eq$ (fun_app$b llength$ ?v1)) (enat$ ?v0))) ))
(assert (forall ((?v0 A_llist$) (?v1 Nat$)) (! (=> (fun_app$a (less_eq$ (fun_app$b llength$ ?v0)) (enat$ ?v1)) (= (fun_app$ (ldropn$ ?v1) ?v0) lNil$)) :pattern ((fun_app$ (ldropn$ ?v1) ?v0)))))
(assert (forall ((?v0 Nat$) (?v1 Nat$) (?v2 Nat$)) (= (fun_app$d (less_eq$a (fun_app$e (plus$a ?v0) ?v1)) (fun_app$e (plus$a ?v2) ?v1)) (fun_app$d (less_eq$a ?v0) ?v2)) ))
(assert (forall ((?v0 Nat$) (?v1 Nat$) (?v2 Nat$)) (= (fun_app$d (less_eq$a (fun_app$e (plus$a ?v0) ?v1)) (fun_app$e (plus$a ?v0) ?v2)) (fun_app$d (less_eq$a ?v1) ?v2)) ))
(assert (forall ((?v0 Enat$)) (= (fun_app$a (less_eq$ ?v0) zero$) (= ?v0 zero$)) ))
(assert (forall ((?v0 Enat$)) (! (= (fun_app$a (less_eq$ infinity$) ?v0) (= ?v0 infinity$)) :pattern ((fun_app$a (less_eq$ infinity$) ?v0)))))
(assert (forall ((?v0 Enat$)) (! (= (fun_app$a (less_eq$ ?v0) infinity$) true) :pattern ((less_eq$ ?v0)))))
(assert (forall ((?v0 Enat$) (?v1 A_llist$)) (= (= (fun_app$ (ldrop$ ?v0) ?v1) lNil$) (fun_app$a (less_eq$ (fun_app$b llength$ ?v1)) ?v0)) ))
(assert (forall ((?v0 Nat$) (?v1 Nat$)) (=> (or (and (fun_app$d (less_eq$a zero$a) ?v0) (fun_app$d (less_eq$a ?v1) zero$a)) (and (fun_app$d (less_eq$a ?v0) zero$a) (fun_app$d (less_eq$a zero$a) ?v1))) (fun_app$d (less_eq$a (fun_app$e (times$a ?v0) ?v1)) zero$a)) ))
(assert (forall ((?v0 Nat$) (?v1 Nat$) (?v2 Nat$) (?v3 Nat$)) (=> (and (fun_app$d (less_eq$a ?v0) ?v1) (and (fun_app$d (less_eq$a ?v2) ?v3) (and (fun_app$d (less_eq$a zero$a) ?v0) (fun_app$d (less_eq$a zero$a) ?v2)))) (fun_app$d (less_eq$a (fun_app$e (times$a ?v0) ?v2)) (fun_app$e (times$a ?v1) ?v3))) ))
(assert (forall ((?v0 Enat$) (?v1 Enat$) (?v2 Enat$) (?v3 Enat$)) (=> (and (fun_app$a (less_eq$ ?v0) ?v1) (and (fun_app$a (less_eq$ ?v2) ?v3) (and (fun_app$a (less_eq$ zero$) ?v0) (fun_app$a (less_eq$ zero$) ?v2)))) (fun_app$a (less_eq$ (fun_app$c (times$ ?v0) ?v2)) (fun_app$c (times$ ?v1) ?v3))) ))
(assert (forall ((?v0 Nat$) (?v1 Nat$) (?v2 Nat$) (?v3 Nat$)) (=> (and (fun_app$d (less_eq$a ?v0) ?v1) (and (fun_app$d (less_eq$a ?v2) ?v3) (and (fun_app$d (less_eq$a zero$a) ?v1) (fun_app$d (less_eq$a zero$a) ?v2)))) (fun_app$d (less_eq$a (fun_app$e (times$a ?v0) ?v2)) (fun_app$e (times$a ?v1) ?v3))) ))
(assert (forall ((?v0 Enat$) (?v1 Enat$) (?v2 Enat$) (?v3 Enat$)) (=> (and (fun_app$a (less_eq$ ?v0) ?v1) (and (fun_app$a (less_eq$ ?v2) ?v3) (and (fun_app$a (less_eq$ zero$) ?v1) (fun_app$a (less_eq$ zero$) ?v2)))) (fun_app$a (less_eq$ (fun_app$c (times$ ?v0) ?v2)) (fun_app$c (times$ ?v1) ?v3))) ))
(assert (forall ((?v0 Nat$) (?v1 Nat$) (?v2 Nat$)) (=> (and (fun_app$d (less_eq$a ?v0) ?v1) (fun_app$d (less_eq$a zero$a) ?v2)) (fun_app$d (less_eq$a (fun_app$e (times$a ?v2) ?v0)) (fun_app$e (times$a ?v2) ?v1))) ))
(assert (forall ((?v0 Enat$) (?v1 Enat$) (?v2 Enat$)) (=> (and (fun_app$a (less_eq$ ?v0) ?v1) (fun_app$a (less_eq$ zero$) ?v2)) (fun_app$a (less_eq$ (fun_app$c (times$ ?v2) ?v0)) (fun_app$c (times$ ?v2) ?v1))) ))
(assert (forall ((?v0 Nat$) (?v1 Nat$) (?v2 Nat$)) (=> (and (fun_app$d (less_eq$a ?v0) ?v1) (fun_app$d (less_eq$a zero$a) ?v2)) (fun_app$d (less_eq$a (fun_app$e (times$a ?v0) ?v2)) (fun_app$e (times$a ?v1) ?v2))) ))
(assert (forall ((?v0 Enat$) (?v1 Enat$) (?v2 Enat$)) (=> (and (fun_app$a (less_eq$ ?v0) ?v1) (fun_app$a (less_eq$ zero$) ?v2)) (fun_app$a (less_eq$ (fun_app$c (times$ ?v0) ?v2)) (fun_app$c (times$ ?v1) ?v2))) ))
(check-sat)
(exit)

